32	4
16	14	15	20
0	0	0	0	0	2	2	31
1	10	0	3	0	1	3
5	0	11	15	0	1	4
8	0	12	0	11	1	5
4	0	14	15	0	1	6
9	5	0	0	20	1	7
10	15	0	15	0	1	8
3	16	0	0	20	1	9
1	14	0	15	0	1	10
6	7	0	0	19	1	11
9	0	0	15	1	1	12
1	12	0	0	12	2	13	30
8	16	0	15	0	1	14
5	0	12	7	0	1	15
4	0	7	0	10	1	16
1	15	0	0	17	2	17	25
10	0	5	0	20	1	18
7	0	14	0	19	1	19
5	0	8	11	0	1	20
9	16	10	0	0	2	21	28
1	16	0	0	20	2	22	27
7	0	0	10	13	1	23
4	0	6	8	0	1	24
4	8	14	0	0	1	26
8	0	0	15	10	1	29
7	13	0	0	17	1	32
3	0	9	0	16	1	32
10	0	12	7	0	1	32
10	2	0	10	0	1	32
4	15	14	0	0	1	32
1	0	10	8	0	1	32
0	0	0	0	0	0
